NAME : amz0641.91864_91864.tour
COMMENT : Cost = 91864_91864
COMMENT : Found by LKH-AMZ [Keld Helsgaun] Sun May 11 14:36:25 2025
COMMENT : TW viol.: 0 #: 0
TYPE : TOUR
DIMENSION : 117
TOUR_SECTION
15
35
23
48
89
72
113
46
98
29
8
43
30
68
111
79
61
91
25
19
49
57
4
44
5
115
80
108
20
45
17
22
93
52
106
109
18
78
96
59
38
76
63
74
95
31
37
114
103
107
84
53
117
33
60
42
65
90
92
24
27
102
71
2
13
14
83
12
70
6
116
112
55
86
54
40
62
101
1
82
94
41
3
26
110
104
73
99
100
64
11
85
51
32
58
50
87
77
10
88
47
81
69
75
21
36
66
105
97
56
7
67
28
34
39
16
9
-1
EOF
